\ENCODING=ISO-8859-1
\Problem name: 

Minimize
 obj1:
Subject To
 s0: y0 - 4 y  = 0
 s1: - 20 y - 5 x_1 - 10 x_2 <= -52
 s2: y <= 4
Bounds
      y0 >= 0
      y >= 0
 0 <= x_1 <= 1
 0 <= x_2 <= 1
Binaries
 x_1  x_2 
Generals
 y0  y 
End
